offer1 = [1, 1, 2, 2, 2, 2, 3, 3];
offer2 = [1, 1, 1, 1, 2, 2, 1, 1];
offer3 = [1, 2, 2, 3, 3, 4, 3, 4];
offer4 = [1, 2, 1, 1, 2, 1, 1, 1];
price1 = [1, 2, 2, 3];
price2 = [1, 1, 2, 1];
price3 = [8, 9, 10, 6];
need1 = [2, 3, 4];
need2 = [1, 3, 1];
maxacceptedoffer1 = [1];
